Bruniera/ragionamento automatico/progetto/benchmark/asp/mid24.lp
start(0).
limit(6).
n(14).
strada(0,1,5).
strada(0,2,19).
strada(0,3,19).
strada(0,5,6).
strada(0,8,14).
strada(0,10,20).
strada(0,12,1).
strada(0,13,8).
strada(1,0,15).
strada(1,2,9).
strada(1,13,10).
strada(2,4,5).
strada(2,6,7).
strada(2,7,8).
strada(2,8,9).
strada(2,9,20).
strada(2,12,16).
strada(2,13,2).
strada(3,4,9).
strada(3,7,8).
strada(3,8,9).
strada(3,9,0).
strada(3,12,12).
strada(3,13,19).
strada(4,3,15).
strada(4,5,15).
strada(4,7,4).
strada(4,8,10).
strada(4,11,19).
strada(5,3,7).
strada(5,4,3).
strada(5,8,5).
strada(5,9,3).
strada(5,11,14).
strada(5,13,5).
strada(6,0,18).
strada(6,1,8).
strada(6,3,18).
strada(6,5,9).
strada(6,7,20).
strada(6,11,16).
strada(7,1,4).
strada(7,5,18).
strada(7,6,0).
strada(7,10,1).
strada(7,11,17).
strada(7,12,20).
strada(8,1,5).
strada(8,2,10).
strada(8,3,9).
strada(8,4,17).
strada(8,6,16).
strada(8,9,9).
strada(8,13,12).
strada(9,0,9).
strada(9,3,3).
strada(9,4,14).
strada(9,6,1).
strada(9,7,0).
strada(10,0,16).
strada(10,5,13).
strada(10,6,6).
strada(10,11,12).
strada(11,3,14).
strada(11,4,17).
strada(11,6,4).
strada(12,0,18).
strada(12,3,4).
strada(12,6,8).
strada(12,8,10).
strada(12,9,9).
strada(12,13,11).
strada(13,0,18).
strada(13,3,4).
strada(13,4,14).
strada(13,5,4).
strada(13,7,1).
