Bruniera/ragionamento automatico/progetto/benchmark/minizinc/mid24.dzn
start = 1;
limit = 6;
n = 14;
m=[|-1,5,19,19,-1,6,-1,-1,14,-1,20,-1,1,8,
|15,-1,9,-1,-1,-1,-1,-1,-1,-1,-1,-1,-1,10,
|-1,-1,-1,-1,5,-1,7,8,9,20,-1,-1,16,2,
|-1,-1,-1,-1,9,-1,-1,8,9,0,-1,-1,12,19,
|-1,-1,-1,15,-1,15,-1,4,10,-1,-1,19,-1,-1,
|-1,-1,-1,7,3,-1,-1,-1,5,3,-1,14,-1,5,
|18,8,-1,18,-1,9,-1,20,-1,-1,-1,16,-1,-1,
|-1,4,-1,-1,-1,18,0,-1,-1,-1,1,17,20,-1,
|-1,5,10,9,17,-1,16,-1,-1,9,-1,-1,-1,12,
|9,-1,-1,3,14,-1,1,0,-1,-1,-1,-1,-1,-1,
|16,-1,-1,-1,-1,13,6,-1,-1,-1,-1,12,-1,-1,
|-1,-1,-1,14,17,-1,4,-1,-1,-1,-1,-1,-1,-1,
|18,-1,-1,4,-1,-1,8,-1,10,9,-1,-1,-1,11,
|18,-1,-1,4,14,4,-1,1,-1,-1,-1,-1,-1,-1,
|]
;